%SETS
JOBS     = 1..15;
MACHINES = 1..2;
SPEED    = 1;

time               = array3d(JOBS,MACHINES,1..SPEED,[64, 59, 48, 68, 49, 90, 96, 44, 81, 57, 61, 93, 16, 17, 11, 84, 80, 88, 98, 81, 51, 80, 20, 67, 22, 95, 56, 47, 33, 79]);
energy             = array3d(JOBS,MACHINES,1..SPEED,[52, 55, 61, 50, 61, 40, 38, 64, 44, 56, 54, 39, 85, 84, 89, 43, 44, 41, 37, 44, 60, 44, 81, 51, 80, 38, 57, 62, 71, 45]);
precedence         = array2d(JOBS,MACHINES,[0,1,1,0,1,0,1,0,1,0,1,0,0,1,0,1,1,0,1,0,1,0,0,1,0,1,1,0,0,1]);